# Solution for model SEP
# Objective value = 0
I0(80) 0
I1(80) 0
I2(80) 0
I3(80) 0
I4(80) 0
I5(80) 0
I6(80) 0
I7(80) 0
I8(80) 0
I9(80) 0
I10(80) 0
I11(80) 0
I12(80) 0
I13(80) 0
I14(80) 0
I15(80) 0
I16(80) 0
I17(80) 0
I18(80) 0
I19(80) 0
I20(80) 0
I21(80) 0
I22(80) 0
I23(80) 0
I24(80) 0
I25(80) 0
I26(80) 0
I27(80) 0
I28(80) 0
I29(80) 0
I30(80) 0
I31(81) 1
I32(80) 0
I33(80) 0
I34(80) 0
I35(80) 0
I36(80) 0
I37(80) 0
I38(80) 0
I39(80) 0
I40(80) 0
I41(3) 0
I42(3) 0
I43(3) 0
I44(3) 0
I45(3) 0
I46(3) 0
I47(3) 0
I48(3) 0
I49(3) 0
I50(3) 0
I51(3) 0
I52(3) 0
I53(3) 0
I54(3) 0
I55(3) 0
I56(3) 0
I57(3) 0
I58(3) 0
I59(3) 0
I60(3) 0
I61(3) 0
I62(3) 0
I63(3) 0
I64(3) 0
I65(3) 0
I66(3) 0
I67(3) 0
I68(3) 0
I69(3) 0
I70(3) 0
I71(3) 0
I72(3) 0
I73(3) 0
I74(3) 0
I75(3) 0
I76(3) 0
I77(3) 0
I78(3) 0
I79(3) 0
I80(3) 0
I81(3) 0
I82(3) 0
I83(3) 0
I84(3) 0
I85(3) 0
I86(3) 0
I87(3) 0
I88(3) 0
I89(3) 0
I90(3) 0
I91(3) 0
I92(3) 0
I93(3) 0
I94(3) 0
I95(3) 0
I96(3) 0
I97(3) 0
I98(3) 0
I99(3) 0
I100(3) 0
I101(3) 0
I102(3) 0
I103(3) 0
I104(3) 0
I105(3) 0
I106(3) 0
I107(3) 0
I108(3) 0
I109(3) 0
I110(3) 0
I111(3) 0
I112(3) 0
I113(3) 0
I114(3) 0
I115(3) 0
I116(3) 0
I117(3) 0
I118(3) 0
I119(3) 0
I120(3) 0
I121(3) 0
I122(3) 0
I123(3) 0
I124(3) 0
I125(3) 0
I126(3) 0
I127(3) 0
I128(3) 0
I129(3) 0
I130(3) 0
I131(3) 0
I132(3) 0
I133(3) 0
I134(3) 0
I135(3) 0
I136(3) 0
I137(3) 0
I138(3) 0
I139(3) 0
I140(3) 0
I141(3) 0
I142(3) 0
I143(3) 0
I144(3) 0
I145(3) 0
I146(3) 0
I147(3) 0
I148(3) 0
I149(3) 0
I150(3) 0
I151(3) 0
I152(3) 0
I153(3) 0
I154(3) 0
I155(3) 0
I156(3) 0
I157(3) 0
I158(3) 0
I159(3) 0
I160(3) 0
I161(3) 0
I162(3) 0
I163(3) 0
I164(3) 0
I165(3) 0
I166(3) 0
I167(3) 0
I168(3) 0
I169(3) 0
I170(3) 0
I171(3) 0
I172(3) 0
I173(3) 0
I174(3) 0
I175(3) 0
I176(3) 0
I177(3) 0
I178(3) 0
I179(3) 0
I180(3) 0
I181(3) 0
I182(3) 0
I183(3) 0
I184(3) 0
I185(3) 0
I186(3) 0
I187(3) 0
I188(3) 0
I189(3) 0
I190(3) 0
I191(3) 0
I192(3) 0
I193(3) 0
I194(3) 0
I195(3) 0
I196(3) 0
I197(3) 0
I198(3) 0
I199(3) 0
I200(3) 0
I201(3) 0
I202(3) 0
I203(3) 0
I204(3) 0
I205(3) 0
I206(3) 0
I207(3) 0
I208(3) 0
I209(3) 0
I210(3) 0
I211(3) 0
I212(3) 0
I213(3) 0
I214(3) 0
I215(3) 0
I216(3) 0
I217(3) 0
I218(3) 0
I219(3) 0
I220(3) 0
I221(3) 0
I222(3) 0
I223(3) 0
I224(3) 0
I225(3) 0
I226(3) 0
I227(3) 0
I228(3) 0
I229(3) 0
I230(3) 0
I231(3) 0
I232(3) 0
I233(3) 0
I234(3) 0
I235(3) 0
I236(3) 0
I237(3) 0
I238(3) 0
I239(3) 0
I240(3) 0
I241(3) 0
I242(3) 0
I243(3) 0
I244(3) 0
I245(3) 0
I246(3) 0
I247(3) 0
I248(3) 0
I249(3) 0
I250(3) 0
I251(3) 0
I252(3) 0
I253(3) 0
I254(3) 0
I255(3) 0
I256(3) 0
I257(3) 0
I258(3) 0
I259(3) 0
I260(3) 0
I261(3) 0
I262(3) 0
I263(3) 0
I264(3) 0
I265(3) 0
I266(3) 0
I267(3) 0
I268(3) 0
I269(3) 0
I270(3) 0
I271(3) 0
I272(3) 0
I273(3) 0
I274(3) 0
I275(3) 0
I276(3) 0
I277(3) 0
I278(3) 0
I279(3) 0
I280(3) 0
I281(3) 0
I282(3) 0
I283(3) 0
I284(3) 0
I285(3) 0
I286(3) 0
I287(3) 0
I288(3) 0
I289(3) 0
I290(3) 0
I291(3) 0
I292(3) 0
I293(3) 0
I294(3) 0
I295(3) 0
I296(3) 0
I297(3) 0
I298(3) 0
I299(3) 0
I300(3) 0
I301(3) 0
I302(3) 0
I303(3) 0
I304(3) 0
I305(3) 0
I306(3) 0
I307(3) 0
I308(3) 0
I309(3) 0
I310(3) 0
I311(3) 0
I312(3) 0
I313(3) 0
I314(3) 0
I315(3) 0
I316(3) 0
I317(3) 0
I318(3) 0
I319(3) 0
I320(3) 0
I321(3) 0
I322(3) 0
I323(3) 0
I324(3) 0
I325(3) 0
I326(3) 0
I327(3) 0
I328(3) 0
I329(3) 0
I330(3) 0
I331(3) 0
I332(3) 0
I333(3) 0
I334(3) 0
I335(3) 0
I336(3) 0
I337(3) 0
I338(3) 0
I339(3) 0
I340(3) 0
I341(3) 0
I342(3) 0
I343(3) 0
I344(3) 0
I345(3) 0
I346(3) 0
I347(3) 0
I348(3) 0
I349(3) 0
I350(3) 0
I351(3) 0
I352(3) 0
I353(3) 0
I354(3) 0
I355(3) 0
I356(3) 0
I357(3) 0
I358(3) 0
I359(3) 0
I360(3) 0
I361(3) 0
I362(3) 0
I363(3) 0
I364(3) 0
I365(3) 0
I366(3) 0
I367(3) 0
I368(3) 0
I369(3) 0
I370(3) 0
I371(3) 0
I372(3) 0
I373(3) 0
I374(3) 0
I375(3) 0
I376(3) 0
I377(3) 0
I378(3) 0
I379(3) 0
I380(3) 0
I381(3) 0
I382(3) 0
I383(3) 0
I384(3) 0
I385(3) 0
I386(3) 0
I387(3) 0
I388(3) 0
I389(3) 0
I390(3) 0
I391(3) 0
I392(3) 0
I393(3) 0
I394(3) 0
I395(3) 0
I396(3) 0
I397(3) 0
I398(3) 0
I399(3) 0
I400(3) 0
I401(3) 0
I402(3) 0
I403(3) 0
I404(3) 0
I405(3) 0
I406(3) 0
I407(3) 0
I408(3) 0
I409(3) 0
I410(3) 0
I411(3) 0
I412(3) 0
I413(3) 0
I414(3) 0
I415(3) 0
I416(3) 0
I417(3) 0
I418(3) 0
I419(3) 0
I420(3) 0
I421(3) 0
I422(3) 0
I423(3) 0
I424(3) 0
I425(3) 0
I426(3) 0
I427(3) 0
I428(3) 0
I429(3) 0
I430(3) 0
I431(3) 0
I432(3) 0
I433(3) 0
I434(3) 0
I435(3) 0
I436(3) 0
I437(3) 0
I438(3) 0
I439(3) 0
I440(3) 0
I441(3) 0
I442(3) 0
I443(3) 0
I444(3) 0
I445(3) 0
I446(3) 0
I447(3) 0
I448(3) 0
I449(3) 0
I450(3) 0
I451(3) 0
I452(3) 0
I453(3) 0
I454(3) 0
I455(3) 0
I456(3) 0
I457(3) 0
I458(3) 0
I459(3) 0
I460(3) 0
I461(3) 0
I462(3) 0
I463(3) 0
I464(3) 0
I465(3) 0
I466(3) 0
I467(3) 0
I468(3) 0
I469(3) 0
I470(3) 0
I471(3) 0
I472(3) 0
I473(3) 0
I474(3) 0
I475(3) 0
I476(3) 0
I477(3) 0
I478(3) 0
I479(3) 0
I480(3) 0
I481(3) 0
I482(3) 0
I483(3) 0
I484(3) 0
I485(3) 0
I486(3) 0
I487(3) 0
I488(3) 0
I489(3) 0
I490(3) 0
I491(3) 0
I492(3) 0
I493(3) 0
I494(3) 0
I495(3) 0
I496(3) 0
I497(3) 0
I498(3) 0
I499(3) 0
I500(3) 0
I501(3) 0
I502(3) 0
I503(3) 0
I504(3) 0
I505(3) 0
I506(3) 0
I507(3) 0
I508(3) 0
I509(3) 0
I510(3) 0
I511(3) 0
I512(3) 0
I513(3) 0
I514(3) 0
I515(3) 0
I516(3) 0
I517(3) 0
I518(3) 0
I519(3) 0
I520(3) 0
I521(3) 0
I522(3) 0
I523(3) 0
I524(3) 0
I525(3) 0
I526(3) 0
I527(3) 0
I528(3) 0
I529(3) 0
I530(3) 0
I531(3) 0
I532(3) 0
I533(3) 0
I534(3) 0
I535(3) 0
I536(3) 0
I537(3) 0
I538(3) 0
I539(3) 0
I540(3) 0
I541(3) 0
I542(3) 0
I543(3) 0
I544(3) 0
I545(3) 0
I546(3) 0
I547(3) 0
I548(3) 0
I549(3) 0
I550(3) 0
I551(3) 0
I552(3) 0
I553(3) 0
I554(3) 0
I555(3) 0
I556(3) 0
I557(3) 0
I558(3) 0
I559(3) 0
I560(3) 0
I561(3) 0
I562(3) 0
I563(3) 0
I564(3) 0
I565(3) 0
I566(3) 0
I567(3) 0
I568(3) 0
I569(3) 0
I570(3) 0
I571(3) 0
I572(3) 0
I573(3) 0
I574(3) 0
I575(3) 0
I576(3) 0
I577(3) 0
I578(3) 0
I579(3) 0
I580(3) 0
I581(3) 0
I582(3) 0
I583(3) 0
I584(3) 0
I585(3) 0
I586(3) 0
I587(3) 0
I588(3) 0
I589(3) 0
I590(3) 0
I591(3) 0
I592(3) 0
I593(3) 0
I594(3) 0
I595(3) 0
I596(3) 0
I597(3) 0
I598(3) 0
I599(3) 0
I600(3) 0
I601(3) 0
I602(3) 0
I603(3) 0
I604(3) 0
I605(3) 0
I606(3) 0
I607(3) 0
I608(3) 0
I609(3) 0
I610(3) 0
I611(3) 0
I612(3) 0
I613(3) 0
I614(3) 0
I615(3) 0
I616(3) 0
I617(3) 0
I618(3) 0
I619(3) 0
I620(3) 0
I621(3) 0
I622(3) 0
I623(3) 0
I624(3) 0
I625(3) 0
I626(3) 0
I627(3) 0
I628(3) 0
I629(3) 0
I630(3) 0
I631(3) 0
I632(3) 0
I633(3) 0
I634(3) 0
I635(3) 0
I636(3) 0
I637(3) 0
I638(3) 0
I639(3) 0
I640(3) 0
I641(3) 0
I642(3) 0
I643(3) 0
I644(3) 0
I645(3) 0
I646(3) 0
I647(3) 0
I648(3) 0
I649(3) 0
I650(3) 0
I651(3) 0
I652(3) 0
I653(3) 0
I654(3) 0
I655(3) 0
I656(3) 0
I657(3) 0
I658(3) 0
I659(3) 0
I660(3) 0
I661(3) 0
I662(3) 0
I663(3) 0
I664(3) 0
I665(3) 0
I666(3) 0
I667(3) 0
I668(3) 0
I669(3) 0
I670(3) 0
I671(3) 0
I672(3) 0
I673(3) 0
I674(3) 0
I675(3) 0
I676(3) 0
I677(3) 0
I678(3) 0
I679(3) 0
I680(3) 0
I681(3) 0
I682(3) 0
I683(3) 0
I684(3) 0
I685(3) 0
I686(3) 0
I687(3) 0
I688(3) 0
I689(3) 0
I690(3) 0
I691(3) 0
I692(3) 0
I693(3) 0
I694(3) 0
I695(3) 0
I696(3) 0
I697(3) 0
I698(3) 0
I699(3) 0
I700(3) 0
I701(3) 0
I702(3) 0
I703(3) 0
I704(3) 0
I705(3) 0
I706(3) 0
I707(3) 0
I708(3) 0
I709(3) 0
I710(3) 0
I711(3) 0
I712(3) 0
I713(3) 0
I714(3) 0
I715(3) 0
I716(3) 0
I717(3) 0
I718(3) 0
I719(3) 0
I720(3) 0
I721(3) 0
I722(3) 0
I723(3) 0
I724(3) 0
I725(3) 0
I726(3) 0
I727(3) 0
I728(3) 0
I729(3) 0
I730(3) 0
I731(3) 0
I732(3) 0
I733(3) 0
I734(3) 0
I735(3) 0
I736(3) 0
I737(3) 0
I738(3) 0
I739(3) 0
I740(3) 0
I741(3) 0
I742(3) 0
I743(3) 0
I744(3) 0
I745(3) 0
I746(3) 0
I747(3) 0
I748(3) 0
I749(3) 0
I750(3) 0
I751(3) 0
I752(3) 0
I753(3) 0
I754(3) 0
I755(3) 0
I756(3) 0
I757(3) 0
I758(3) 0
I759(3) 0
I760(3) 0
I761(3) 0
I762(3) 0
I763(3) 0
I764(3) 0
I765(3) 0
I766(3) 0
I767(3) 0
I768(3) 0
I769(3) 0
I770(3) 0
I771(3) 0
I772(3) 0
I773(3) 0
I774(3) 0
I775(3) 0
I776(3) 0
I777(3) 0
I778(3) 0
I779(3) 0
I780(3) 0
I781(3) 0
I782(3) 0
I783(3) 0
I784(3) 0
I785(3) 0
I786(3) 0
I787(3) 0
I788(3) 0
I789(3) 0
I790(3) 0
I791(3) 0
I792(3) 0
I793(3) 0
I794(3) 0
I795(3) 0
I796(3) 0
I797(3) 0
I798(3) 0
I799(3) 0
I800(3) 0
I801(3) 0
I802(3) 0
I803(3) 0
I804(3) 0
I805(3) 0
I806(3) 0
I807(3) 0
I808(3) 0
I809(3) 0
I810(3) 0
I811(3) 0
I812(3) 0
I813(3) 0
I814(3) 0
I815(3) 0
I816(3) 0
I817(3) 0
I818(3) 0
I819(3) 0
I820(3) 0
I821(3) 0
I822(3) 0
I823(3) 0
I824(3) 0
I825(3) 0
I826(3) 0
I827(3) 0
I828(3) 0
I829(3) 0
I830(3) 0
I831(3) 0
I832(3) 0
I833(3) 0
I834(3) 0
I835(3) 0
I836(3) 0
I837(3) 0
I838(3) 0
I839(3) 0
I840(3) 0
I841(3) 0
I842(3) 0
I843(3) 0
I844(3) 0
I845(3) 0
I846(3) 0
I847(3) 0
I848(3) 0
I849(3) 0
I850(3) 0
I851(3) 0
I852(3) 0
I853(3) 0
I854(3) 0
I855(3) 0
I856(3) 0
I857(3) 0
I858(3) 0
I859(3) 0
I860(3) 0
